Normalized Data/p01_13_normalized_splitx10_0.vrp
NAME:p01_13_NORMALIZED_splitx10_
BEST_KNOWN: 0
COMMENT: 0
DIMENSION: 185
CAPACITY: 1000
EDGE_WEIGHT_FORMAT: FUNCTION
EDGE_WEIGHT_TYPE: EXACT_2D
NODE_COORD_SECTION
1 0.00000 0.00000
2 -29 -33
3 -29 -33
4 -29 -33
5 -29 -33
6 -6 24
7 -6 24
8 -6 24
9 -6 24
10 4 32
11 4 32
12 4 32
13 4 32
14 4 32
15 26 41
16 26 41
17 26 41
18 -37 46
19 -37 46
20 -37 46
21 -37 46
22 -37 46
23 -13 -24
24 -13 -24
25 -13 -24
26 -13 -24
27 39 -48
28 39 -48
29 39 -48
30 32 -27
31 32 -27
32 32 -27
33 32 -27
34 2 19
35 2 19
36 2 19
37 46 39
38 27 -34
39 27 -34
40 27 -34
41 27 -34
42 -45 -4
43 -45 -4
44 -29 27
45 -29 27
46 -29 27
47 -49 25
48 -49 25
49 -30 37
50 -30 37
51 -6 -17
52 -6 -17
53 -6 -17
54 -6 -17
55 26 -25
56 26 -25
57 26 -25
58 26 -25
59 26 -25
60 -39 36
61 -39 36
62 -39 36
63 -39 36
64 -45 -46
65 -45 -46
66 -45 -46
67 -45 -46
68 -45 -46
69 -45 -46
70 5 -29
71 5 -29
72 5 -29
73 5 -29
74 -37 31
75 -37 31
76 -35 -20
77 -35 -20
78 -35 -20
79 -35 -20
80 -35 -20
81 -23 -33
82 -23 -33
83 -23 -33
84 -23 -33
85 -23 -33
86 20 -44
87 20 -44
88 11 -3
89 11 -3
90 11 -3
91 11 -3
92 11 -3
93 11 -3
94 -34 -34
95 -34 -34
96 -34 -34
97 45 -12
98 45 -12
99 45 -12
100 -1 -49
101 -29 39
102 -29 39
103 -29 39
104 -29 39
105 -29 39
106 -16 -4
107 -16 -4
108 -16 -4
109 -16 -4
110 7 -1
111 7 -1
112 -22 -7
113 -22 -7
114 -22 -7
115 -22 -7
116 -17 35
117 -17 35
118 -17 35
119 -17 35
120 -17 35
121 36 47
122 36 47
123 36 47
124 -11 32
125 -11 32
126 27 -17
127 27 -17
128 27 -17
129 27 -17
130 3 7
131 3 7
132 3 7
133 -35 -28
134 -35 -28
135 -35 -28
136 -35 -28
137 -9 -26
138 -9 -26
139 -9 -26
140 -9 -26
141 -9 -26
142 -9 -26
143 -9 -26
144 12 17
145 12 17
146 12 17
147 12 17
148 12 17
149 -10 -14
150 -10 -14
151 2 26
152 2 26
153 2 26
154 2 26
155 2 26
156 2 26
157 -2 -12
158 -2 -12
159 -2 -12
160 -2 -12
161 5 17
162 5 17
163 -38 31
164 -38 31
165 -38 31
166 -45 -8
167 -45 -8
168 -45 -8
169 -45 -8
170 32 17
171 32 17
172 32 17
173 32 17
174 0 -33
175 0 -33
176 0 -33
177 0 -33
178 -27 -28
179 -27 -28
180 -27 -28
181 -27 -28
182 -27 -28
183 3 -30
184 3 -30
185 3 -30
DEMAND_SECTION
1 0
2 200
3 100
4 10
5 10
6 200
7 100
8 50
9 10
10 200
11 50
12 10
13 10
14 10
15 200
16 100
17 10
18 200
19 100
20 50
21 10
22 10
23 100
24 10
25 10
26 10
27 200
28 200
29 50
30 100
31 10
32 10
33 10
34 100
35 50
36 10
37 200
38 200
39 100
40 10
41 10
42 100
43 50
44 200
45 200
46 10
47 200
48 100
49 200
50 100
51 200
52 200
53 10
54 10
55 200
56 50
57 10
58 10
59 10
60 100
61 50
62 10
63 10
64 200
65 200
66 50
67 10
68 10
69 10
70 200
71 200
72 50
73 10
74 200
75 200
76 100
77 10
78 10
79 10
80 10
81 200
82 50
83 10
84 10
85 10
86 200
87 10
88 200
89 100
90 50
91 10
92 10
93 10
94 100
95 50
96 10
97 200
98 200
99 50
100 200
101 200
102 100
103 50
104 10
105 10
106 100
107 50
108 10
109 10
110 200
111 200
112 200
113 200
114 50
115 10
116 200
117 50
118 10
119 10
120 10
121 200
122 100
123 10
124 200
125 10
126 200
127 100
128 50
129 10
130 100
131 50
132 10
133 200
134 200
135 50
136 10
137 200
138 200
139 50
140 10
141 10
142 10
143 10
144 100
145 50
146 10
147 10
148 10
149 100
150 50
151 200
152 100
153 50
154 10
155 10
156 10
157 200
158 200
159 10
160 10
161 200
162 200
163 200
164 100
165 10
166 200
167 50
168 10
169 10
170 200
171 200
172 50
173 10
174 100
175 10
176 10
177 10
178 200
179 50
180 10
181 10
182 10
183 200
184 100
185 50
DEPOT_SECTION
1
-1
EOF