Normalized Data/p01_13_normalized_splitx10_0.sol
184 -8 6 5 7 123 124 13 9 10 11 12 33 34 -19 17 20 18 21 60 62 61 59 164 43 44 45 -30 32 31 29 27 26 28 85 86 99 -35 153 151 155 150 154 152 161 160 130 129 131 -36 121 120 122 15 14 16 143 145 144 147 146 -40 37 38 39 57 58 56 55 54 126 127 125 128 -42 41 165 166 167 168 112 111 114 107 105 108 106 -47 46 163 162 73 74 -48 49 101 104 103 102 100 116 115 117 119 118 -51 52 50 53 159 157 156 158 -70 71 72 69 184 182 183 173 175 176 174 -90 92 89 88 91 87 110 109 -96 98 97 172 171 169 170 -113 76 77 75 78 79 132 3 4 1 2 178 179 181 177 180 -135 134 133 65 63 66 67 64 68 93 95 94 148 -138 140 139 142 141 137 136 84 82 83 81 80 24 25 23 22 149 0 





OBJ=
1511.108
BEST_KNOWN=
0.000